c A SAT instance generated from a 3-CNF formula that had 36 clauses and 9 variables
p cnf 9 36
5 -6 -2 0
1 -2 -4 0
-8 -4 9 0
-4 -5 9 0
6 8 -3 0
5 4 9 0
3 -5 1 0
1 -9 -6 0
-5 8 6 0
5 9 4 0
6 -8 1 0
-7 6 -3 0
-8 -5 -7 0
-1 -7 5 0
2 1 7 0
3 -1 -7 0
-2 4 9 0
-8 -1 -3 0
6 3 1 0
5 3 1 0
9 5 -3 0
-8 7 1 0
-3 2 -8 0
9 7 4 0
3 5 -6 0
7 -4 9 0
-6 1 -5 0
-6 2 5 0
8 2 -4 0
-3 2 5 0
8 2 -5 0
3 -1 4 0
-8 3 9 0
-8 4 -5 0
-3 -9 -5 0
6 -8 -3 0
